c SAT Generator for power-law distributed variable frequencies
c -g u -v 20 -c 91 -k 3 -p 2.750000 -b 3.200000 -f /home/schmidt/Devel/ni-kop-sat/data/ensemble/ruf20-91/ruf20-91-465 -u 1 -U 1 -s 3079258687
p cnf 20 91
-3 -16 -20 0
-9 10 -17 0
7 13 20 0
5 15 -19 0
-2 14 18 0
-8 -13 19 0
4 5 15 0
11 -15 18 0
-3 -8 17 0
5 7 14 0
3 -16 -20 0
-2 10 -11 0
-9 -12 19 0
-9 12 -20 0
-12 18 20 0
-9 12 13 0
-4 -8 20 0
-7 -9 -13 0
5 -8 -11 0
-1 15 -17 0
8 9 -13 0
1 10 -11 0
-3 -7 8 0
-6 -12 20 0
-6 -8 20 0
2 -10 12 0
-13 -15 -16 0
-15 17 20 0
6 -12 17 0
-1 2 -17 0
-3 18 -19 0
-3 4 20 0
-5 9 -14 0
2 -11 17 0
-9 -11 -18 0
9 10 18 0
13 -18 19 0
1 -2 3 0
4 9 10 0
-4 7 8 0
-3 11 -15 0
-7 -11 17 0
-2 -4 -16 0
13 -17 19 0
-3 -11 -19 0
2 -5 12 0
1 10 -14 0
-3 -7 -9 0
-6 -14 -17 0
-1 -2 10 0
-4 6 -9 0
-13 16 -19 0
6 15 17 0
-1 -8 9 0
-4 16 17 0
7 -11 -12 0
-1 9 19 0
-3 -14 -16 0
-3 -5 -18 0
-6 9 15 0
-1 6 11 0
-7 -12 -17 0
3 -15 -17 0
6 14 -16 0
-3 9 -16 0
2 -12 -20 0
2 3 10 0
-2 3 -14 0
1 -6 -10 0
-6 7 20 0
-6 -8 12 0
11 -14 18 0
13 15 -20 0
-5 17 18 0
1 4 -19 0
1 -2 -13 0
3 -6 18 0
-5 -11 20 0
18 19 20 0
1 -3 13 0
-4 10 14 0
-1 -13 19 0
-6 13 15 0
-4 -7 17 0
9 10 20 0
6 13 17 0
3 12 17 0
8 11 -20 0
-7 12 -14 0
-9 13 -16 0
-6 18 20 0
